Route #1: 2 27 49 5 63 47
Route #2: 43 21 52 24 1 44 23 77
Route #3: 10 25 18 68 53 40 64 11 26
Route #4: 42 16 41 14 36 9 19 28 74 6 60 66
Route #5: 4 59 35 55 33 13 48
Route #6: 50 39 61 62 70 30
Route #7: 75 57 7 76 32 29 37
Route #8: 73 3 54 20 31 45 46 34
Route #9: 8 71 22 12 15 51 65
Route #10: 38 56 67 69 58 72 17
Cost 1291